Instance0
Gap





22.38%
21.59%
10.82%
10.82%
10.82%
9.72%
8.50%
7.82%
7.16%
6.64%
5.24%
3.90%
3.67%
3.41%
3.28%
3.17%
3.01%
2.95%
2.83%
2.73%
2.60%
2.33%
2.28%
1.86%
1.75%
1.75%
1.74%
1.49%
CPXPARAM_MIP_Cuts_LiftProj-Gomory-Disjunctive-MIRCut:LiftProj 0
CPXPARAM_MIP_Cuts_LiftProj-Gomory-Disjunctive-MIRCut:Gomory 13
CPXPARAM_MIP_Cuts_LiftProj-Gomory-Disjunctive-MIRCut:Disjunctive 2
CPXPARAM_MIP_Cuts_LiftProj-Gomory-Disjunctive-MIRCut:MIRCut 0
Instance1
Gap



69.73%
67.46%
65.89%
63.61%
63.32%
63.21%
62.75%
61.68%
61.42%
60.80%
60.58%
59.85%
59.01%
58.50%
54.78%
52.51%
44.21%
41.49%
39.65%
30.81%
27.59%
24.58%
21.51%
21.51%
20.17%
20.17%
20.17%
20.17%
18.52%
15.01%
12.53%
9.48%
8.77%
0
CPXPARAM_MIP_Cuts_LiftProj-Gomory-Disjunctive-MIRCut:LiftProj 0
CPXPARAM_MIP_Cuts_LiftProj-Gomory-Disjunctive-MIRCut:Gomory 3
CPXPARAM_MIP_Cuts_LiftProj-Gomory-Disjunctive-MIRCut:Disjunctive 2
CPXPARAM_MIP_Cuts_LiftProj-Gomory-Disjunctive-MIRCut:MIRCut 0
Instance2
Gap



0.35%
0.35%
0.35%
0.35%
0.35%
0.18%
CPXPARAM_MIP_Cuts_LiftProj-Gomory-Disjunctive-MIRCut:LiftProj 0
CPXPARAM_MIP_Cuts_LiftProj-Gomory-Disjunctive-MIRCut:Gomory 0
CPXPARAM_MIP_Cuts_LiftProj-Gomory-Disjunctive-MIRCut:Disjunctive 5
CPXPARAM_MIP_Cuts_LiftProj-Gomory-Disjunctive-MIRCut:MIRCut 0
Instance3
Gap

0.00%
0
CPXPARAM_MIP_Cuts_LiftProj-Gomory-Disjunctive-MIRCut:LiftProj 0
CPXPARAM_MIP_Cuts_LiftProj-Gomory-Disjunctive-MIRCut:Gomory 0
CPXPARAM_MIP_Cuts_LiftProj-Gomory-Disjunctive-MIRCut:Disjunctive 0
CPXPARAM_MIP_Cuts_LiftProj-Gomory-Disjunctive-MIRCut:MIRCut 0
Instance4
Gap







4.98%
4.98%
4.98%
4.97%
4.85%
4.67%
4.62%
4.23%
3.86%
3.79%
3.72%
3.10%
3.04%
2.77%
2.72%
2.51%
2.26%
1.51%
1.08%
0
CPXPARAM_MIP_Cuts_LiftProj-Gomory-Disjunctive-MIRCut:LiftProj 0
CPXPARAM_MIP_Cuts_LiftProj-Gomory-Disjunctive-MIRCut:Gomory 4
CPXPARAM_MIP_Cuts_LiftProj-Gomory-Disjunctive-MIRCut:Disjunctive 0
CPXPARAM_MIP_Cuts_LiftProj-Gomory-Disjunctive-MIRCut:MIRCut 0
Instance5
Gap













57.85%
57.05%
56.26%
54.83%
52.71%
52.69%
52.55%
50.85%
49.58%
48.17%
46.24%
44.19%
43.94%
43.05%
41.88%
38.73%
38.43%
36.61%
35.60%
32.31%
31.24%
29.10%
28.10%
27.66%
26.20%
25.34%
24.77%
24.62%
24.21%
24.11%
23.22%
21.87%
21.26%
21.04%
21.01%
21.01%
17.40%
13.92%
12.12%
8.83%
1.06%
0.98%
0
CPXPARAM_MIP_Cuts_LiftProj-Gomory-Disjunctive-MIRCut:LiftProj 0
CPXPARAM_MIP_Cuts_LiftProj-Gomory-Disjunctive-MIRCut:Gomory 1
CPXPARAM_MIP_Cuts_LiftProj-Gomory-Disjunctive-MIRCut:Disjunctive 1
CPXPARAM_MIP_Cuts_LiftProj-Gomory-Disjunctive-MIRCut:MIRCut 0
Instance6
Gap
111.50%
92.96%
0.13%
0.13%
0.13%
0.13%
CPXPARAM_MIP_Cuts_LiftProj-Gomory-Disjunctive-MIRCut:LiftProj 0
CPXPARAM_MIP_Cuts_LiftProj-Gomory-Disjunctive-MIRCut:Gomory 0
CPXPARAM_MIP_Cuts_LiftProj-Gomory-Disjunctive-MIRCut:Disjunctive 0
CPXPARAM_MIP_Cuts_LiftProj-Gomory-Disjunctive-MIRCut:MIRCut 0
Instance7
Gap

23.59%
23.59%
23.59%
23.59%
CPXPARAM_MIP_Cuts_LiftProj-Gomory-Disjunctive-MIRCut:LiftProj 0
CPXPARAM_MIP_Cuts_LiftProj-Gomory-Disjunctive-MIRCut:Gomory 1
CPXPARAM_MIP_Cuts_LiftProj-Gomory-Disjunctive-MIRCut:Disjunctive 4
CPXPARAM_MIP_Cuts_LiftProj-Gomory-Disjunctive-MIRCut:MIRCut 0
Instance8
Gap






2.62%
2.62%
2.62%
2.48%
2.39%
2.33%
2.29%
2.27%
2.07%
2.07%
2.06%
1.80%
1.72%
1.51%
1.49%
1.48%
1.47%
1.02%
CPXPARAM_MIP_Cuts_LiftProj-Gomory-Disjunctive-MIRCut:LiftProj 0
CPXPARAM_MIP_Cuts_LiftProj-Gomory-Disjunctive-MIRCut:Gomory 12
CPXPARAM_MIP_Cuts_LiftProj-Gomory-Disjunctive-MIRCut:Disjunctive 0
CPXPARAM_MIP_Cuts_LiftProj-Gomory-Disjunctive-MIRCut:MIRCut 0
Instance9
Gap




























17.80%
17.80%
17.80%
17.40%
17.11%
16.93%
16.22%
16.06%
15.66%
15.42%
15.41%
15.38%
15.37%
15.36%
15.35%
15.30%
CPXPARAM_MIP_Cuts_LiftProj-Gomory-Disjunctive-MIRCut:LiftProj 0
CPXPARAM_MIP_Cuts_LiftProj-Gomory-Disjunctive-MIRCut:Gomory 13
CPXPARAM_MIP_Cuts_LiftProj-Gomory-Disjunctive-MIRCut:Disjunctive 3
CPXPARAM_MIP_Cuts_LiftProj-Gomory-Disjunctive-MIRCut:MIRCut 0
Instance10
Gap



0.01%
CPXPARAM_MIP_Cuts_LiftProj-Gomory-Disjunctive-MIRCut:LiftProj 0
CPXPARAM_MIP_Cuts_LiftProj-Gomory-Disjunctive-MIRCut:Gomory 2
CPXPARAM_MIP_Cuts_LiftProj-Gomory-Disjunctive-MIRCut:Disjunctive 4
CPXPARAM_MIP_Cuts_LiftProj-Gomory-Disjunctive-MIRCut:MIRCut 0
Instance11
Gap



0.02%
0.02%
0.02%
0
CPXPARAM_MIP_Cuts_LiftProj-Gomory-Disjunctive-MIRCut:LiftProj 0
CPXPARAM_MIP_Cuts_LiftProj-Gomory-Disjunctive-MIRCut:Gomory 0
CPXPARAM_MIP_Cuts_LiftProj-Gomory-Disjunctive-MIRCut:Disjunctive 2
CPXPARAM_MIP_Cuts_LiftProj-Gomory-Disjunctive-MIRCut:MIRCut 0
Instance12
Gap

















8.73%
8.73%
8.73%
7.89%
7.57%
7.42%
7.35%
7.25%
7.18%
7.14%
7.10%
7.08%
6.92%
6.61%
6.55%
6.50%
6.38%
6.36%
6.33%
6.32%
6.29%
CPXPARAM_MIP_Cuts_LiftProj-Gomory-Disjunctive-MIRCut:LiftProj 0
CPXPARAM_MIP_Cuts_LiftProj-Gomory-Disjunctive-MIRCut:Gomory 14
CPXPARAM_MIP_Cuts_LiftProj-Gomory-Disjunctive-MIRCut:Disjunctive 3
CPXPARAM_MIP_Cuts_LiftProj-Gomory-Disjunctive-MIRCut:MIRCut 0
Instance13
Gap

37.35%
36.94%
34.33%
32.94%
31.71%
30.95%
30.18%
27.09%
25.78%
25.12%
24.89%
24.68%
24.26%
24.21%
24.11%
23.99%
23.43%
23.25%
22.84%
22.80%
22.44%
22.42%
22.38%
21.75%
21.44%
21.34%
20.99%
20.95%
20.75%
20.56%
20.45%
20.42%
20.39%
20.32%
20.31%
20.30%
20.13%
CPXPARAM_MIP_Cuts_LiftProj-Gomory-Disjunctive-MIRCut:LiftProj 0
CPXPARAM_MIP_Cuts_LiftProj-Gomory-Disjunctive-MIRCut:Gomory 15
CPXPARAM_MIP_Cuts_LiftProj-Gomory-Disjunctive-MIRCut:Disjunctive 1
CPXPARAM_MIP_Cuts_LiftProj-Gomory-Disjunctive-MIRCut:MIRCut 0
Instance14
Gap

1.86%
1.86%
1.86%
1.86%
1.86%
1.86%
1.40%
CPXPARAM_MIP_Cuts_LiftProj-Gomory-Disjunctive-MIRCut:LiftProj 0
CPXPARAM_MIP_Cuts_LiftProj-Gomory-Disjunctive-MIRCut:Gomory 0
CPXPARAM_MIP_Cuts_LiftProj-Gomory-Disjunctive-MIRCut:Disjunctive 4
CPXPARAM_MIP_Cuts_LiftProj-Gomory-Disjunctive-MIRCut:MIRCut 0
Instance15
Gap
112.51%
98.57%
98.57%
98.57%
98.57%
CPXPARAM_MIP_Cuts_LiftProj-Gomory-Disjunctive-MIRCut:LiftProj 0
CPXPARAM_MIP_Cuts_LiftProj-Gomory-Disjunctive-MIRCut:Gomory 0
CPXPARAM_MIP_Cuts_LiftProj-Gomory-Disjunctive-MIRCut:Disjunctive 3
CPXPARAM_MIP_Cuts_LiftProj-Gomory-Disjunctive-MIRCut:MIRCut 0
Instance16
Gap



2.33%
2.33%
2.33%
1.65%
1.37%
1.28%
1.23%
0
CPXPARAM_MIP_Cuts_LiftProj-Gomory-Disjunctive-MIRCut:LiftProj 0
CPXPARAM_MIP_Cuts_LiftProj-Gomory-Disjunctive-MIRCut:Gomory 1
CPXPARAM_MIP_Cuts_LiftProj-Gomory-Disjunctive-MIRCut:Disjunctive 8
CPXPARAM_MIP_Cuts_LiftProj-Gomory-Disjunctive-MIRCut:MIRCut 0
Instance17
Gap



48.65%
44.83%
43.37%
42.40%
42.23%
42.14%
42.08%
39.92%
39.72%
37.15%
37.11%
36.05%
36.04%
35.92%
35.81%
35.73%
35.44%
CPXPARAM_MIP_Cuts_LiftProj-Gomory-Disjunctive-MIRCut:LiftProj 0
CPXPARAM_MIP_Cuts_LiftProj-Gomory-Disjunctive-MIRCut:Gomory 15
CPXPARAM_MIP_Cuts_LiftProj-Gomory-Disjunctive-MIRCut:Disjunctive 0
CPXPARAM_MIP_Cuts_LiftProj-Gomory-Disjunctive-MIRCut:MIRCut 0
Instance18
Gap
110.91%
93.14%
93.14%
0.05%
0.05%
0.05%
0
CPXPARAM_MIP_Cuts_LiftProj-Gomory-Disjunctive-MIRCut:LiftProj 0
CPXPARAM_MIP_Cuts_LiftProj-Gomory-Disjunctive-MIRCut:Gomory 1
CPXPARAM_MIP_Cuts_LiftProj-Gomory-Disjunctive-MIRCut:Disjunctive 2
CPXPARAM_MIP_Cuts_LiftProj-Gomory-Disjunctive-MIRCut:MIRCut 0
Instance19
Gap
114.31%
97.72%
0.46%
0.46%
0.46%
0.46%
CPXPARAM_MIP_Cuts_LiftProj-Gomory-Disjunctive-MIRCut:LiftProj 0
CPXPARAM_MIP_Cuts_LiftProj-Gomory-Disjunctive-MIRCut:Gomory 0
CPXPARAM_MIP_Cuts_LiftProj-Gomory-Disjunctive-MIRCut:Disjunctive 0
CPXPARAM_MIP_Cuts_LiftProj-Gomory-Disjunctive-MIRCut:MIRCut 0
Instance20
Gap



5.02%
5.02%
5.02%
3.81%
2.99%
2.84%
2.58%
2.04%
0
CPXPARAM_MIP_Cuts_LiftProj-Gomory-Disjunctive-MIRCut:LiftProj 0
CPXPARAM_MIP_Cuts_LiftProj-Gomory-Disjunctive-MIRCut:Gomory 2
CPXPARAM_MIP_Cuts_LiftProj-Gomory-Disjunctive-MIRCut:Disjunctive 4
CPXPARAM_MIP_Cuts_LiftProj-Gomory-Disjunctive-MIRCut:MIRCut 0
Instance21
Gap



33.12%
25.85%
23.85%
23.17%
22.71%
19.50%
18.83%
17.59%
16.03%
14.40%
13.89%
13.89%
13.89%
11.76%
10.16%
5.16%
4.25%
1.85%
1.85%
0.00%
CPXPARAM_MIP_Cuts_LiftProj-Gomory-Disjunctive-MIRCut:LiftProj 0
CPXPARAM_MIP_Cuts_LiftProj-Gomory-Disjunctive-MIRCut:Gomory 2
CPXPARAM_MIP_Cuts_LiftProj-Gomory-Disjunctive-MIRCut:Disjunctive 0
CPXPARAM_MIP_Cuts_LiftProj-Gomory-Disjunctive-MIRCut:MIRCut 0
Instance22
Gap

0.39%
0.39%
0.39%
0.39%
0.39%
0.39%
0.39%
0.38%
CPXPARAM_MIP_Cuts_LiftProj-Gomory-Disjunctive-MIRCut:LiftProj 0
CPXPARAM_MIP_Cuts_LiftProj-Gomory-Disjunctive-MIRCut:Gomory 2
CPXPARAM_MIP_Cuts_LiftProj-Gomory-Disjunctive-MIRCut:Disjunctive 7
CPXPARAM_MIP_Cuts_LiftProj-Gomory-Disjunctive-MIRCut:MIRCut 0
Instance23
Gap



3.15%
3.15%
3.15%
3.15%
0
CPXPARAM_MIP_Cuts_LiftProj-Gomory-Disjunctive-MIRCut:LiftProj 0
CPXPARAM_MIP_Cuts_LiftProj-Gomory-Disjunctive-MIRCut:Gomory 0
CPXPARAM_MIP_Cuts_LiftProj-Gomory-Disjunctive-MIRCut:Disjunctive 2
CPXPARAM_MIP_Cuts_LiftProj-Gomory-Disjunctive-MIRCut:MIRCut 0
Instance24
Gap

10.00%
10.00%
8.85%
8.85%
8.85%
7.36%
6.63%
5.78%
5.15%
4.91%
4.84%
4.73%
4.55%
4.39%
3.77%
3.35%
3.12%
1.89%
0
CPXPARAM_MIP_Cuts_LiftProj-Gomory-Disjunctive-MIRCut:LiftProj 0
CPXPARAM_MIP_Cuts_LiftProj-Gomory-Disjunctive-MIRCut:Gomory 1
CPXPARAM_MIP_Cuts_LiftProj-Gomory-Disjunctive-MIRCut:Disjunctive 0
CPXPARAM_MIP_Cuts_LiftProj-Gomory-Disjunctive-MIRCut:MIRCut 0
Instance25
Gap



85.95%
80.42%
78.87%
71.29%
66.83%
64.16%
63.76%
62.94%
61.50%
59.27%
57.38%
57.07%
56.89%
56.40%
55.58%
53.41%
52.68%
51.66%
51.43%
50.78%
50.51%
50.30%
50.25%
50.24%
50.04%
50.01%
49.88%
49.87%
48.17%
CPXPARAM_MIP_Cuts_LiftProj-Gomory-Disjunctive-MIRCut:LiftProj 0
CPXPARAM_MIP_Cuts_LiftProj-Gomory-Disjunctive-MIRCut:Gomory 19
CPXPARAM_MIP_Cuts_LiftProj-Gomory-Disjunctive-MIRCut:Disjunctive 0
CPXPARAM_MIP_Cuts_LiftProj-Gomory-Disjunctive-MIRCut:MIRCut 0
Instance26
Gap
0.00%
CPXPARAM_MIP_Cuts_LiftProj-Gomory-Disjunctive-MIRCut:LiftProj 0
CPXPARAM_MIP_Cuts_LiftProj-Gomory-Disjunctive-MIRCut:Gomory 0
CPXPARAM_MIP_Cuts_LiftProj-Gomory-Disjunctive-MIRCut:Disjunctive 0
CPXPARAM_MIP_Cuts_LiftProj-Gomory-Disjunctive-MIRCut:MIRCut 0
Instance27
Gap

0.42%
0.42%
0.42%
0.42%
0.42%
0.33%
CPXPARAM_MIP_Cuts_LiftProj-Gomory-Disjunctive-MIRCut:LiftProj 0
CPXPARAM_MIP_Cuts_LiftProj-Gomory-Disjunctive-MIRCut:Gomory 0
CPXPARAM_MIP_Cuts_LiftProj-Gomory-Disjunctive-MIRCut:Disjunctive 2
CPXPARAM_MIP_Cuts_LiftProj-Gomory-Disjunctive-MIRCut:MIRCut 0
Instance28
Gap



11.69%
11.69%
11.69%
11.14%
10.83%
9.73%
9.47%
9.36%
8.86%
8.43%
8.24%
7.13%
6.44%
6.40%
6.31%
6.22%
6.18%
5.84%
5.69%
2.15%
CPXPARAM_MIP_Cuts_LiftProj-Gomory-Disjunctive-MIRCut:LiftProj 0
CPXPARAM_MIP_Cuts_LiftProj-Gomory-Disjunctive-MIRCut:Gomory 14
CPXPARAM_MIP_Cuts_LiftProj-Gomory-Disjunctive-MIRCut:Disjunctive 1
CPXPARAM_MIP_Cuts_LiftProj-Gomory-Disjunctive-MIRCut:MIRCut 0
Instance29
Gap
111.49%
406.57%
82.87%
81.66%
79.43%
78.61%
77.93%
77.73%
77.69%
77.13%
75.43%
75.34%
75.25%
74.85%
74.77%
74.75%
74.67%
74.42%
74.26%
73.21%
72.52%
72.23%
71.74%
70.50%
68.97%
28.22%
28.22%
28.22%
24.58%
22.82%
21.90%
20.97%
20.69%
19.92%
19.52%
18.56%
18.06%
17.96%
17.94%
17.89%
17.87%
17.77%
17.73%
17.60%
17.54%
17.52%
17.40%
17.32%
17.29%
17.22%
17.18%
17.17%
17.13%
17.12%
10.94%
CPXPARAM_MIP_Cuts_LiftProj-Gomory-Disjunctive-MIRCut:LiftProj 0
CPXPARAM_MIP_Cuts_LiftProj-Gomory-Disjunctive-MIRCut:Gomory 16
CPXPARAM_MIP_Cuts_LiftProj-Gomory-Disjunctive-MIRCut:Disjunctive 3
CPXPARAM_MIP_Cuts_LiftProj-Gomory-Disjunctive-MIRCut:MIRCut 0
Instance30
Gap
120.75%
227.70%
17.33%
17.33%
17.33%
17.33%
CPXPARAM_MIP_Cuts_LiftProj-Gomory-Disjunctive-MIRCut:LiftProj 0
CPXPARAM_MIP_Cuts_LiftProj-Gomory-Disjunctive-MIRCut:Gomory 2
CPXPARAM_MIP_Cuts_LiftProj-Gomory-Disjunctive-MIRCut:Disjunctive 3
CPXPARAM_MIP_Cuts_LiftProj-Gomory-Disjunctive-MIRCut:MIRCut 0
Instance31
Gap

5.20%
5.20%
5.20%
5.20%
5.20%
5.20%
5.20%
4.96%
CPXPARAM_MIP_Cuts_LiftProj-Gomory-Disjunctive-MIRCut:LiftProj 0
CPXPARAM_MIP_Cuts_LiftProj-Gomory-Disjunctive-MIRCut:Gomory 1
CPXPARAM_MIP_Cuts_LiftProj-Gomory-Disjunctive-MIRCut:Disjunctive 6
CPXPARAM_MIP_Cuts_LiftProj-Gomory-Disjunctive-MIRCut:MIRCut 0
Instance32
Gap




5.63%
5.63%
5.63%
5.34%
4.76%
4.61%
4.50%
4.31%
4.22%
4.11%
3.68%
3.33%
3.22%
2.97%
2.17%
2.12%
2.05%
2.00%
0
CPXPARAM_MIP_Cuts_LiftProj-Gomory-Disjunctive-MIRCut:LiftProj 0
CPXPARAM_MIP_Cuts_LiftProj-Gomory-Disjunctive-MIRCut:Gomory 13
CPXPARAM_MIP_Cuts_LiftProj-Gomory-Disjunctive-MIRCut:Disjunctive 0
CPXPARAM_MIP_Cuts_LiftProj-Gomory-Disjunctive-MIRCut:MIRCut 0
Instance33
Gap





54.19%
43.62%
37.99%
36.39%
28.15%
24.81%
11.09%
11.09%
11.09%
0
CPXPARAM_MIP_Cuts_LiftProj-Gomory-Disjunctive-MIRCut:LiftProj 0
CPXPARAM_MIP_Cuts_LiftProj-Gomory-Disjunctive-MIRCut:Gomory 7
CPXPARAM_MIP_Cuts_LiftProj-Gomory-Disjunctive-MIRCut:Disjunctive 0
CPXPARAM_MIP_Cuts_LiftProj-Gomory-Disjunctive-MIRCut:MIRCut 0
Instance34
Gap



0.14%
0.14%
0.08%
0
CPXPARAM_MIP_Cuts_LiftProj-Gomory-Disjunctive-MIRCut:LiftProj 0
CPXPARAM_MIP_Cuts_LiftProj-Gomory-Disjunctive-MIRCut:Gomory 1
CPXPARAM_MIP_Cuts_LiftProj-Gomory-Disjunctive-MIRCut:Disjunctive 4
CPXPARAM_MIP_Cuts_LiftProj-Gomory-Disjunctive-MIRCut:MIRCut 0
Instance35
Gap



2.41%
2.41%
2.41%
0.80%
0
CPXPARAM_MIP_Cuts_LiftProj-Gomory-Disjunctive-MIRCut:LiftProj 0
CPXPARAM_MIP_Cuts_LiftProj-Gomory-Disjunctive-MIRCut:Gomory 0
CPXPARAM_MIP_Cuts_LiftProj-Gomory-Disjunctive-MIRCut:Disjunctive 4
CPXPARAM_MIP_Cuts_LiftProj-Gomory-Disjunctive-MIRCut:MIRCut 0
Instance36
Gap



7.12%
7.12%
7.12%
6.61%
5.81%
3.88%
3.83%
3.81%
3.80%
3.68%
3.55%
3.49%
3.41%
3.04%
2.98%
2.97%
2.96%
0
CPXPARAM_MIP_Cuts_LiftProj-Gomory-Disjunctive-MIRCut:LiftProj 0
CPXPARAM_MIP_Cuts_LiftProj-Gomory-Disjunctive-MIRCut:Gomory 10
CPXPARAM_MIP_Cuts_LiftProj-Gomory-Disjunctive-MIRCut:Disjunctive 2
CPXPARAM_MIP_Cuts_LiftProj-Gomory-Disjunctive-MIRCut:MIRCut 0
Instance37
Gap






































0
CPXPARAM_MIP_Cuts_LiftProj-Gomory-Disjunctive-MIRCut:LiftProj 3
CPXPARAM_MIP_Cuts_LiftProj-Gomory-Disjunctive-MIRCut:Gomory 21
CPXPARAM_MIP_Cuts_LiftProj-Gomory-Disjunctive-MIRCut:Disjunctive 0
CPXPARAM_MIP_Cuts_LiftProj-Gomory-Disjunctive-MIRCut:MIRCut 0
Instance38
Gap

0.21%
0.21%
0.21%
0.21%
0.00%
CPXPARAM_MIP_Cuts_LiftProj-Gomory-Disjunctive-MIRCut:LiftProj 0
CPXPARAM_MIP_Cuts_LiftProj-Gomory-Disjunctive-MIRCut:Gomory 0
CPXPARAM_MIP_Cuts_LiftProj-Gomory-Disjunctive-MIRCut:Disjunctive 1
CPXPARAM_MIP_Cuts_LiftProj-Gomory-Disjunctive-MIRCut:MIRCut 0
Instance39
Gap



0.50%
0.50%
0.50%
0
CPXPARAM_MIP_Cuts_LiftProj-Gomory-Disjunctive-MIRCut:LiftProj 0
CPXPARAM_MIP_Cuts_LiftProj-Gomory-Disjunctive-MIRCut:Gomory 0
CPXPARAM_MIP_Cuts_LiftProj-Gomory-Disjunctive-MIRCut:Disjunctive 4
CPXPARAM_MIP_Cuts_LiftProj-Gomory-Disjunctive-MIRCut:MIRCut 0
